50
750
589
579
559
558
556
554
552
547
526
525
522
496
473
465
436
434
419
407
376
372
369
353
353
352
349
341
338
337
336
311
311
301
297
286
280
277
262
258
256
252
236
235
234
233
225
219
217
178
167
159
